
List of user-set options:

                                    Name   Value                used
                           compl_inf_tol = 1                     yes
                         constr_viol_tol = 1                     yes
                            dual_inf_tol = 1000                  yes
                           linear_solver = ma97                  yes
                              ma86_small = 1e-30                  no
                                  ma86_u = 0.0001                 no
                              ma97_order = best                  yes
                              ma97_small = 1e-30                 yes
                            ma97_switch1 = at_start              yes
                            ma97_switch2 = od_hd_reuse           yes
                                  ma97_u = 1e-06                 yes
                               ma97_umax = 0.5                   yes
                                max_iter = 1000                  yes
                    max_refinement_steps = 20                    yes
                    min_refinement_steps = 5                     yes
                                 mu_init = 1e-06                 yes
           mu_superlinear_decrease_power = 1.25                  yes
                   nlp_scaling_min_value = 1e-08                 yes
                        option_file_name = Preset_Case:_440_NCP.opt  yes
                             output_file = ./tmp/Preset_Case:_440_NCP.output  yes
                      print_user_options = yes                   yes
        required_infeasibility_reduction = 1                      no
                                     tol = 1e-08                 yes
                   warm_start_bound_frac = 1e-20                 yes
                   warm_start_bound_push = 1e-20                 yes
                   warm_start_init_point = yes                   yes
              warm_start_mult_bound_push = 1e-20                 yes
                warm_start_mult_init_max = 1e+40                 yes
             warm_start_slack_bound_frac = 1e-20                 yes
             warm_start_slack_bound_push = 1e-20                 yes

******************************************************************************
This program contains Ipopt, a library for large-scale nonlinear optimization.
 Ipopt is released as open source code under the Eclipse Public License (EPL).
         For more information visit http://projects.coin-or.org/Ipopt
******************************************************************************

This is Ipopt version 3.12.10, running with linear solver ma97.

Number of nonzeros in equality constraint Jacobian...:   117167
Number of nonzeros in inequality constraint Jacobian.:      213
Number of nonzeros in Lagrangian Hessian.............:    47513

Total number of variables............................:    29977
                     variables with only lower bounds:    11312
                variables with lower and upper bounds:    15135
                     variables with only upper bounds:        0
Total number of equality constraints.................:    29864
Total number of inequality constraints...............:       25
        inequality constraints with only lower bounds:        4
   inequality constraints with lower and upper bounds:        0
        inequality constraints with only upper bounds:       21

iter    objective    inf_pr   inf_du lg(mu)  ||d||  lg(rg) alpha_du alpha_pr  ls
   0 -1.5996395e-01 2.22e-01 2.00e+00  -6.0 0.00e+00    -  0.00e+00 0.00e+00   0
In iteration 0, 9 Slacks too small, adjusting variable bounds
   1 -1.5996395e-01 2.22e-01 2.83e+02  -6.0 1.12e+10    -  2.82e-14 6.19e-19h  1
   2 -1.5996230e-01 2.22e-01 2.84e+02  -6.0 5.22e+02    -  3.75e-06 2.32e-05f  1
   3 -1.5996222e-01 2.22e-01 2.87e+02  -6.0 1.76e+02    -  2.01e-02 2.93e-06h  2
   4 -1.5995871e-01 2.22e-01 2.88e+02  -6.0 4.06e+02    -  2.02e-03 6.44e-05h  1
   5 -1.6000139e-01 2.22e-01 2.87e+02  -6.0 9.52e+02    -  7.21e-03 2.01e-03f  1
   6 -1.6000137e-01 2.22e-01 3.05e+02  -6.0 7.82e+01    -  9.56e-02 3.62e-06h  2
   7 -1.5998814e-01 2.22e-01 3.07e+02  -6.0 3.42e+02    -  1.38e-02 2.67e-04h  1
   8 -1.5817960e-01 2.10e-01 3.13e+02  -6.0 1.42e+02    -  1.47e-01 5.32e-02h  1
   9 -1.5713294e-01 2.03e-01 2.99e+02  -6.0 1.31e+02    -  5.00e-03 3.14e-02h  2
iter    objective    inf_pr   inf_du lg(mu)  ||d||  lg(rg) alpha_du alpha_pr  ls
  10 -1.5586680e-01 1.94e-01 2.80e+02  -6.0 1.13e+02    -  9.16e-03 4.50e-02h  1
  11 -1.5586558e-01 1.94e-01 2.84e+02  -6.0 1.52e+02    -  2.58e-02 7.50e-05h  1
  12 -1.5528953e-01 1.88e-01 2.89e+02  -6.0 1.59e+02    -  1.39e-01 3.32e-02h  3
  13 -1.5483901e-01 1.84e-01 2.88e+02  -6.0 1.68e+02    -  8.44e-02 2.26e-02h  4
  14 -1.5453961e-01 1.81e-01 2.90e+02  -6.0 1.70e+02    -  9.72e-02 1.41e-02h  5
  15 -1.5411904e-01 1.78e-01 3.08e+02  -6.0 1.70e+02    -  2.45e-01 1.89e-02h  5
  16 -1.5361976e-01 1.74e-01 3.06e+02  -6.0 1.68e+02    -  5.56e-02 2.02e-02h  6
  17 -1.5309342e-01 1.70e-01 3.25e+02  -6.0 1.66e+02    -  2.46e-01 2.13e-02h  6
  18 -1.5251105e-01 1.66e-01 3.26e+02  -6.0 1.66e+02    -  1.04e-01 2.30e-02h  6
  19 -1.5192452e-01 1.62e-01 3.16e+02  -6.0 1.64e+02    -  5.54e-03 2.34e-02h  6
iter    objective    inf_pr   inf_du lg(mu)  ||d||  lg(rg) alpha_du alpha_pr  ls
  20 -1.5132566e-01 1.59e-01 3.07e+02  -6.0 1.62e+02    -  2.47e-03 2.38e-02h  6
  21 -1.5071487e-01 1.55e-01 3.00e+02  -6.0 1.59e+02    -  1.87e-02 2.38e-02h  6
  22 -1.3094772e-01 4.17e+00 5.74e+03  -6.0 1.56e+02    -  3.28e-02 7.84e-01w  1
  23 -1.2998658e-01 4.09e+00 5.48e+03  -6.0 3.77e+02    -  4.31e-04 2.08e-02w  1
  24 -1.2812837e-01 3.14e+00 3.97e+03  -6.0 1.88e+01    -  4.46e-04 2.40e-01w  1
  25 -1.5009714e-01 1.51e-01 2.93e+02  -6.0 2.93e+01    -  3.28e-02 2.45e-02h  5
  26 -1.4947213e-01 1.47e-01 2.95e+02  -6.0 1.54e+02    -  3.01e-01 2.53e-02h  6
  27 -1.4883780e-01 1.43e-01 2.89e+02  -6.0 1.55e+02    -  6.56e-02 2.59e-02h  6
  28 -1.4819664e-01 1.40e-01 2.89e+02  -6.0 1.52e+02    -  3.78e-01 2.68e-02h  6
  29 -1.4754719e-01 1.36e-01 2.82e+02  -6.0 1.51e+02    -  8.86e-02 2.75e-02h  6
iter    objective    inf_pr   inf_du lg(mu)  ||d||  lg(rg) alpha_du alpha_pr  ls
  30 -1.4689053e-01 1.32e-01 2.77e+02  -6.0 1.47e+02    -  4.10e-01 2.86e-02h  6
  31 -1.4621097e-01 1.28e-01 2.70e+02  -6.0 1.30e+02    -  8.63e-02 2.86e-02h  6
  32 -1.4552879e-01 1.24e-01 2.60e+02  -6.0 1.27e+02    -  4.55e-01 2.91e-02h  6
  33 -1.4534527e-01 1.24e-01 2.59e+02  -6.0 4.52e+02    -  3.55e-02 4.51e-03h  5
  34 -1.4519068e-01 1.23e-01 2.58e+02  -6.0 5.40e+02    -  9.73e-03 3.44e-03h  5
  35 -1.3550909e-01 1.65e+00 2.88e+02  -6.0 5.35e+01  -4.0 1.63e-01 3.99e-01w  1
  36 -1.2537893e-01 1.62e+00 1.25e+04  -6.0 4.30e+01  -4.5 6.10e-01 7.28e-01w  1
  37 -1.2467886e-01 6.26e-01 4.04e+03  -6.0 1.95e+01  -5.0 6.35e-01 6.19e-01w  1
  38 -1.4488813e-01 1.22e-01 2.50e+02  -6.0 5.17e+01  -5.4 1.63e-01 1.25e-02h  5
  39 -1.4368408e-01 1.22e-01 2.50e+02  -6.0 1.22e+05    -  1.87e-04 1.87e-04s 10
iter    objective    inf_pr   inf_du lg(mu)  ||d||  lg(rg) alpha_du alpha_pr  ls
  40 -1.4473681e-01 1.22e-01 2.50e+02  -6.0 7.47e+03  -5.9 1.99e-03 1.99e-03s 10
  41 -1.4298276e-01 2.31e-01 2.49e+02  -6.0 3.07e+04    -  1.10e-03 1.10e-03s 10
  42 -1.4189759e-01 2.76e-01 2.49e+02  -6.0 1.87e+04  -6.4 1.12e-03 1.12e-03s 10
  43r-1.4189759e-01 2.76e-01 9.99e+02  -0.8 0.00e+00  -4.2 0.00e+00 0.00e+00R  1
  44r-1.4209643e-01 2.81e-01 9.99e+02  -0.8 4.27e+06    -  1.90e-07 4.64e-07f  1
  45r-1.4199148e-01 2.76e-01 1.41e+03  -0.8 9.00e+03    -  4.46e-06 1.54e-05f  1
  46r-1.4186930e-01 2.70e-01 1.26e+03  -0.8 6.43e+03    -  1.77e-05 2.34e-05f  1
  47r-1.4155033e-01 2.52e-01 2.85e+03  -0.8 4.97e+03    -  1.57e-04 7.13e-05f  1
  48r-1.3987525e-01 1.65e-01 1.93e+03  -0.8 3.03e+03    -  3.54e-04 4.50e-04f  1
  49 -1.3987293e-01 1.65e-01 1.72e+05  -6.0 8.09e+01    -  3.24e-01 2.42e-04h  1
iter    objective    inf_pr   inf_du lg(mu)  ||d||  lg(rg) alpha_du alpha_pr  ls
  50 -1.3952372e-01 1.61e-01 1.91e+07  -6.0 1.21e+02    -  2.45e-04 2.71e-02h  3
  51 -1.3948873e-01 1.60e-01 1.90e+07  -6.0 1.23e+02    -  5.80e-01 2.73e-03h  6
  52 -1.3947191e-01 1.60e-01 1.90e+07  -6.0 1.54e+02    -  3.15e-02 1.12e-03h 10
  53 -1.3946312e-01 1.60e-01 1.90e+07  -6.0 1.55e+02    -  5.46e-01 5.88e-04h 11
  54 -1.3880998e-01 1.55e-01 1.81e+07  -6.0 1.67e+02    -  3.35e-02 4.59e-02h  5
  55 -1.3075371e-01 3.49e-01 8.17e+06  -6.0 1.68e+02    -  5.31e-01 5.50e-01H  1
  56 -1.3031053e-01 4.77e-01 6.30e+06  -6.0 1.16e+02    -  2.91e-01 2.30e-01h  2
  57 -1.3033758e-01 4.74e-01 5.84e+06  -6.0 1.12e+02    -  7.26e-01 7.21e-02h  3
  58 -1.3005533e-01 4.62e-01 5.15e+06  -6.0 8.77e+00  -4.6 3.40e-01 1.19e-01h  1
  59 -1.3140631e-01 3.52e-01 2.22e+06  -6.0 1.10e+01  -5.1 5.15e-02 5.68e-01H  1
iter    objective    inf_pr   inf_du lg(mu)  ||d||  lg(rg) alpha_du alpha_pr  ls
  60 -1.3299563e-01 2.02e-01 1.43e+06  -6.0 2.04e+01  -5.6 4.57e-01 3.55e-01h  1
  61 -1.3420932e-01 3.55e-01 1.34e+06  -6.0 4.57e+01  -6.1 5.52e-02 6.42e-02h  3
  62 -1.3460209e-01 4.13e-01 1.33e+06  -6.0 1.77e+02  -6.5 6.89e-02 1.00e-02h  4
  63 -1.3653289e-01 4.66e-01 1.16e+06  -6.0 4.39e+01  -6.1 3.28e-01 1.30e-01h  2
  64 -1.3954312e-01 5.74e-01 1.03e+06  -6.0 1.10e+02  -6.6 4.73e-01 1.09e-01h  3
  65 -1.4364009e-01 3.82e-01 7.09e+05  -6.0 4.37e+01  -6.2 3.15e-02 3.12e-01h  2
  66 -1.4556117e-01 3.91e-01 6.90e+05  -6.0 5.01e+02  -5.7 2.25e-02 2.68e-02h  1
  67 -1.4619240e-01 2.72e-01 4.69e+05  -6.0 7.83e+00  -5.3 3.81e-01 3.21e-01h  1
  68 -1.4807853e-01 2.04e-01 6.75e+05  -6.0 2.38e+01  -5.8 2.80e-01 5.07e-01H  1
  69 -1.5371141e-01 1.31e+00 2.83e+05  -6.0 6.86e+01  -6.3 6.51e-01 5.81e-01h  1
iter    objective    inf_pr   inf_du lg(mu)  ||d||  lg(rg) alpha_du alpha_pr  ls
  70 -1.5556333e-01 1.25e+00 2.64e+05  -6.0 2.14e+02  -6.7 5.16e-01 6.78e-02h  1
  71 -1.5817782e-01 1.22e+00 2.56e+05  -6.0 7.64e+02  -7.2 1.34e-02 3.09e-02h  1
  72 -1.6370103e-01 1.13e+00 2.24e+05  -6.0 5.50e+02  -6.8 3.83e-02 1.23e-01h  1
  73 -1.7294053e-01 9.39e-01 1.27e+05  -6.0 1.81e+02  -6.4 8.37e-03 4.35e-01h  1
  74 -1.7305082e-01 9.36e-01 1.26e+05  -6.0 2.87e+02  -6.8 4.26e-02 3.74e-03h  1
  75 -1.7317643e-01 9.33e-01 1.26e+05  -6.0 5.02e+02  -7.3 4.40e-02 2.12e-03h  1
  76 -1.7439205e-01 9.27e-01 1.25e+05  -6.0 2.15e+03  -7.8 7.81e-03 7.58e-03f  1
  77 -1.7652382e-01 8.92e-01 1.20e+05  -6.0 5.44e+02  -7.4 1.56e-02 3.60e-02h  1
  78 -1.7674573e-01 8.78e-01 1.20e+05  -6.0 7.22e+02  -7.9 1.36e-01 4.63e-03h  1
  79 -1.8130247e-01 5.71e+00 1.00e+05  -6.0 2.39e+02  -7.4 8.37e-03 1.63e-01h  1
iter    objective    inf_pr   inf_du lg(mu)  ||d||  lg(rg) alpha_du alpha_pr  ls
  80 -1.8132189e-01 5.42e+00 9.52e+04  -6.0 9.57e+00  -4.3 1.77e-01 5.08e-02h  1
  81 -1.8141681e-01 3.67e+00 6.43e+04  -6.0 1.31e+01  -4.8 3.10e-01 3.24e-01h  1
  82 -1.8174210e-01 1.72e+00 2.98e+04  -6.0 9.64e+00  -5.2 6.10e-01 5.37e-01h  1
  83 -1.8195897e-01 1.51e+00 2.62e+04  -6.0 2.54e+01  -5.7 1.08e-01 1.22e-01h  1
  84 -1.8240667e-01 1.55e+00 2.18e+04  -6.0 2.40e+01  -6.2 4.06e-01 1.66e-01h  1
  85 -1.8313125e-01 3.02e+00 1.90e+04  -6.0 5.28e+01  -6.7 1.59e-01 1.28e-01h  1
  86 -1.8354246e-01 3.65e+00 1.84e+04  -6.0 1.19e+02  -7.2 2.67e-01 3.51e-02h  1
  87 -1.8766116e-01 2.47e+00 1.13e+04  -6.0 3.11e+02  -7.6 3.27e-01 3.83e-01h  1
  88 -1.9303205e-01 9.40e+00 9.18e+03  -6.0 1.08e+03  -8.1 1.01e-01 1.90e-01h  1
  89 -1.9577228e-01 1.18e+01 7.78e+03  -6.0 3.22e+02  -7.7 3.27e-01 1.53e-01h  1
iter    objective    inf_pr   inf_du lg(mu)  ||d||  lg(rg) alpha_du alpha_pr  ls
  90 -1.9744943e-01 9.42e+00 5.58e+03  -6.0 1.13e+02  -7.3 4.54e-01 2.82e-01h  1
  91 -1.9744576e-01 9.39e+00 5.56e+03  -6.0 6.54e+01  -3.2 3.45e-03 3.60e-03h  1
  92 -1.9743357e-01 9.39e+00 5.56e+03  -6.0 1.56e+03  -2.8 3.39e-05 1.99e-04h  1
  93 -1.9742470e-01 9.31e+00 5.52e+03  -6.0 2.52e+01  -2.4 4.06e-03 8.02e-03h  1
  94 -1.9742040e-01 9.18e+00 5.44e+03  -6.0 1.14e+01  -1.9 7.52e-03 1.36e-02h  1
  95 -1.9741950e-01 9.18e+00 5.44e+03  -6.0 1.97e+02  -2.4 2.01e-03 1.64e-04h  1
  96 -1.9741016e-01 9.07e+00 1.03e+04  -6.0 1.14e+01  -2.0 1.02e-01 1.26e-02h  1
  97 -1.9740400e-01 8.87e+00 7.97e+03  -6.0 1.02e+01  -1.6 2.69e-02 2.18e-02h  1
  98 -1.9738461e-01 8.67e+00 7.80e+03  -6.0 1.66e+01  -2.0 6.63e-02 2.27e-02h  1
  99 -1.9735925e-01 8.23e+00 7.40e+03  -6.0 9.36e+00  -1.6 4.31e-02 5.06e-02h  1
iter    objective    inf_pr   inf_du lg(mu)  ||d||  lg(rg) alpha_du alpha_pr  ls
 100 -1.9730479e-01 7.95e+00 7.16e+03  -6.0 4.71e+01  -2.1 3.12e-02 3.32e-02h  1
 101 -1.9729554e-01 7.83e+00 7.28e+03  -6.0 9.97e+00  -1.7 1.00e+00 1.58e-02h  1
 102 -1.9728983e-01 7.81e+00 9.00e+03  -6.0 1.28e+02  -2.1 1.75e-02 2.08e-03h  1
 103 -1.9690007e-01 7.37e-01 1.35e+05  -6.0 1.13e+01  -1.7 1.60e-02 1.00e+00h  1
 104 -1.9704039e-01 6.36e-01 1.12e+05  -6.0 1.92e+01  -2.2 1.93e-01 1.69e-01h  1
 105 -1.9749162e-01 3.38e-01 6.59e+04  -6.0 2.28e+01  -2.7 2.02e-01 4.14e-01h  1
 106 -1.9762866e-01 2.01e-01 4.24e+04  -6.0 1.72e+01  -3.1 4.41e-01 3.57e-01h  1
 107 -1.9761916e-01 3.29e-01 4.20e+04  -6.0 1.42e+03  -3.6 6.83e-03 7.49e-03h  1
 108 -1.9761921e-01 3.29e-01 4.20e+04  -6.0 5.59e+00   2.2 4.79e-05 8.26e-05h  1
 109 -1.9761915e-01 3.29e-01 4.20e+04  -6.0 2.65e+00   2.6 4.98e-05 9.42e-05h  1
iter    objective    inf_pr   inf_du lg(mu)  ||d||  lg(rg) alpha_du alpha_pr  ls
 110 -1.9761916e-01 3.29e-01 4.20e+04  -6.0 3.64e+01   2.2 2.65e-05 1.67e-05h  1
 111 -1.9761916e-01 3.29e-01 4.20e+04  -6.0 5.34e+00   2.6 4.19e-04 1.27e-04h  1
 112 -1.9761912e-01 3.29e-01 4.20e+04  -6.0 1.96e+00   3.0 4.30e-04 2.20e-04h  1
 113 -1.9761903e-01 3.29e-01 4.20e+04  -6.0 1.52e+01   2.5 1.17e-04 9.86e-05h  1
 114 -1.9761898e-01 3.29e-01 4.29e+04  -6.0 4.35e+00   3.0 7.22e-04 1.95e-04h  1
 115 -1.9761889e-01 3.29e-01 4.48e+04  -6.0 1.89e+00   3.4 9.50e-04 5.89e-04h  1
 116 -1.9761830e-01 3.28e-01 4.20e+04  -6.0 3.29e+01   2.9 4.97e-05 4.06e-04h  1
 117 -1.9761829e-01 3.28e-01 4.20e+04  -6.0 5.42e+00   4.2 2.16e-04 6.04e-05h  1
 118 -1.9761822e-01 3.28e-01 4.94e+04  -6.0 7.35e+00   3.8 5.21e-04 4.29e-04h  1
 119 -1.9761830e-01 3.28e-01 5.26e+04  -6.0 9.00e+00   4.2 8.83e-05 1.26e-04h  1
iter    objective    inf_pr   inf_du lg(mu)  ||d||  lg(rg) alpha_du alpha_pr  ls
 120 -1.9761821e-01 3.28e-01 5.27e+04  -6.0 1.02e+01   3.7 1.18e-08 6.01e-05f  1
 121 -1.9761778e-01 3.28e-01 5.34e+04  -6.0 1.07e+01   3.2 2.31e-04 2.64e-04h  1
 122 -1.9761647e-01 3.28e-01 5.42e+04  -6.0 1.19e+01   2.8 1.11e-04 8.38e-04f  1
 123 -1.9761599e-01 3.28e-01 5.42e+04  -6.0 1.26e+01   2.3 1.41e-03 3.40e-04f  1
 124 -1.9759307e-01 3.22e-01 4.11e+04  -6.0 1.52e+01   1.8 2.34e-04 1.87e-02h  1
 125 -1.9759733e-01 3.20e-01 4.08e+04  -6.0 1.23e+01   1.3 4.28e-03 5.87e-03f  1
 126 -1.9759412e-01 3.14e-01 4.00e+04  -6.0 5.59e+00   1.8 1.41e-02 1.96e-02f  1
 127 -1.9759418e-01 3.14e-01 4.00e+04  -6.0 6.05e+00   1.3 7.17e-02 8.26e-04f  1
 128 -1.9760346e-01 3.12e-01 3.98e+04  -6.0 3.17e+01   0.8 2.34e-03 5.23e-03h  1
 129 -1.9760216e-01 3.09e-01 3.94e+04  -6.0 4.79e+00   1.2 4.85e-01 9.90e-03h  1
iter    objective    inf_pr   inf_du lg(mu)  ||d||  lg(rg) alpha_du alpha_pr  ls
 130 -1.9760258e-01 3.09e-01 3.93e+04  -6.0 6.31e+00   0.8 6.46e-03 1.78e-03h  1
 131 -1.9760487e-01 3.08e-01 3.93e+04  -6.0 5.75e+01   0.3 4.93e-04 1.20e-03h  1
 132 -1.9760479e-01 3.08e-01 3.93e+04  -6.0 5.20e+00   0.7 1.14e-02 5.30e-04h  1
 133 -1.9760997e-01 3.06e-01 3.90e+04  -6.0 3.12e+01   0.2 3.66e-03 7.01e-03h  1
In iteration 133, 1 Slack too small, adjusting variable bound
 134 -1.9764450e-01 3.09e-01 3.90e+04  -6.0 2.05e+03  -0.3 2.03e-04 5.78e-04h  1
 135 -1.9750905e-01 2.49e-01 3.16e+05  -6.0 8.81e+00  -0.7 8.06e-02 3.75e-01H  1
 136 -1.9748267e-01 2.27e-01 2.89e+05  -6.0 2.20e+00  -1.2 7.10e-01 8.82e-02h  1
 137 -1.9739959e-01 2.61e-02 5.89e+04  -6.0 1.62e+00  -0.8 8.55e-01 1.00e+00h  1
 138 -1.9738704e-01 2.46e-05 5.91e+01  -6.0 4.81e-02  -1.3 8.85e-01 1.00e+00h  1
 139 -1.9738852e-01 4.41e-08 1.70e+02  -6.0 2.92e-03  -1.7 2.61e-01 1.00e+00h  1
iter    objective    inf_pr   inf_du lg(mu)  ||d||  lg(rg) alpha_du alpha_pr  ls
 140 -1.9739258e-01 3.10e-07 4.84e+01  -6.0 8.60e-03  -2.2 5.15e-01 1.00e+00h  1
 141 -1.9740434e-01 2.53e-06 2.32e+01  -6.0 2.56e-02  -2.7 5.88e-01 1.00e+00h  1
 142 -1.9743857e-01 2.13e-05 1.12e+01  -6.0 7.61e-02  -3.2 6.29e-01 1.00e+00h  1
 143 -1.9753737e-01 1.78e-04 3.10e+00  -6.0 2.25e-01  -3.6 6.71e-01 1.00e+00h  1
 144 -1.9767350e-01 4.34e-04 2.80e+00  -6.0 6.51e-01  -4.1 8.50e-01 4.93e-01h  1
 145 -1.9777089e-01 5.15e-04 1.60e+01  -6.0 1.55e+00  -4.6 9.56e-01 1.56e-01f  1
 146 -1.9792969e-01 6.07e-04 2.13e+01  -6.0 3.82e+00  -5.1 4.83e-01 1.15e-01f  1
 147 -1.9828309e-01 2.05e-02 2.78e+01  -6.0 6.72e+01  -5.6 5.16e-02 3.54e-02f  1
 148 -1.9883224e-01 8.25e-02 1.58e+03  -6.0 2.63e+01  -6.0 3.39e-01 1.23e-01h  1
 149 -1.9922751e-01 7.20e-02 1.35e+04  -6.0 1.84e+01  -6.5 1.00e+00 1.50e-01h  1
iter    objective    inf_pr   inf_du lg(mu)  ||d||  lg(rg) alpha_du alpha_pr  ls
 150 -2.0148802e-01 6.03e-01 7.35e+03  -6.0 4.47e+01  -7.0 1.00e+00 6.69e-01h  1
 151 -2.0275118e-01 2.69e-01 1.61e+04  -6.0 1.08e+02  -7.5 4.42e-01 2.60e-01h  1
 152 -2.0317951e-01 2.61e-01 3.32e+04  -6.0 2.35e+02  -7.9 2.37e-01 3.79e-02h  1
 153 -2.0461592e-01 1.88e-01 1.54e+04  -6.0 1.03e+02  -7.5 1.53e-01 2.66e-01f  1
 154 -2.0820291e-01 6.43e-01 1.31e+04  -6.0 3.51e+02  -8.0 1.92e-01 3.23e-01h  1
 155 -2.0909258e-01 6.29e-01 1.80e+04  -6.0 1.94e+03  -8.5 8.54e-02 3.09e-02h  1
 156 -2.1334132e-01 5.14e-01 6.12e+04  -6.0 3.63e+02  -8.0 4.45e-01 3.43e-01h  1
 157 -2.1392884e-01 4.95e-01 3.39e+05  -6.0 1.47e+02  -7.6 2.26e-01 5.98e-02h  1
 158r-2.1392884e-01 4.95e-01 1.00e+03  -0.4 0.00e+00  -8.1 0.00e+00 2.71e-07R  4
 159r-2.1354094e-01 4.94e-01 1.00e+03  -0.4 1.62e+04    -  8.10e-06 6.89e-06f  1
iter    objective    inf_pr   inf_du lg(mu)  ||d||  lg(rg) alpha_du alpha_pr  ls
 160 -2.1367459e-01 3.09e-01 3.55e+05  -6.0 3.18e+01    -  1.55e-01 3.74e-01h  1
 161 -2.1372076e-01 2.10e-01 1.04e+05  -6.0 1.02e+01    -  1.19e-01 3.23e-01h  1
 162 -2.1375328e-01 1.33e-01 1.28e+05  -6.0 5.30e+00    -  5.77e-01 3.67e-01h  1
 163 -2.1383903e-01 9.82e-03 9.62e+03  -6.0 1.51e+00    -  8.20e-01 9.25e-01h  1
 164 -2.1391808e-01 6.28e-03 6.19e+03  -6.0 2.14e+00    -  5.42e-01 3.56e-01h  1
 165 -2.1412979e-01 1.27e-03 9.82e+00  -6.0 1.49e+00    -  7.75e-01 1.00e+00f  1
 166 -2.1499804e-01 1.44e-02 5.48e+00  -6.0 8.12e+00    -  4.32e-01 9.13e-01h  1
 167 -2.1552754e-01 1.38e-02 2.13e+00  -6.0 1.02e+01    -  6.04e-01 4.52e-01h  1
 168 -2.1600123e-01 1.45e-02 4.48e+00  -6.0 2.22e+01    -  9.10e-01 4.37e-01f  1
 169 -2.1781351e-01 3.87e-01 3.39e+00  -6.0 2.15e+02    -  9.07e-01 7.23e-01f  1
iter    objective    inf_pr   inf_du lg(mu)  ||d||  lg(rg) alpha_du alpha_pr  ls
 170 -2.2600276e-01 1.37e+01 3.68e+01  -6.0 2.01e+03    -  1.87e-02 4.13e-01h  1
 171 -2.2915453e-01 2.06e+01 3.37e+03  -6.0 2.29e+03  -8.6 1.16e-01 2.10e-01h  1
 172 -2.2920901e-01 2.03e+01 4.83e+03  -6.0 3.58e+01  -6.3 1.39e-01 1.32e-02h  1
 173 -2.2925481e-01 1.91e+01 4.71e+03  -6.0 3.92e+01  -6.8 8.93e-02 6.20e-02h  1
 174 -2.2950402e-01 1.72e+01 4.97e+03  -6.0 1.01e+02  -7.3 2.73e-01 9.75e-02h  1
 175 -2.3192307e-01 1.25e+00 6.94e+02  -6.0 1.97e+02  -7.8 4.50e-01 1.00e+00h  1
 176 -2.3268608e-01 9.97e-01 6.91e+02  -6.0 1.38e+03  -8.2 2.49e-01 3.00e-02h  1
 177 -2.3386827e-01 9.28e-01 7.61e+02  -6.0 1.52e+03  -8.7 6.40e-01 8.62e-02h  1
 178 -2.3743340e-01 3.32e+00 9.15e+01  -6.0 4.41e+02  -8.3 6.24e-01 1.00e+00h  1
 179 -2.3851575e-01 2.73e+00 4.96e+01  -6.0 5.22e+02  -8.8 3.75e-01 2.72e-01h  1
iter    objective    inf_pr   inf_du lg(mu)  ||d||  lg(rg) alpha_du alpha_pr  ls
 180 -2.4027732e-01 2.36e+00 4.45e+01  -6.0 2.28e+03  -9.3 5.77e-01 2.43e-01h  1
 181 -2.4307239e-01 2.28e+01 1.17e+03  -6.0 3.88e+03  -9.7 1.91e-01 2.60e-01h  1
 182 -2.4406981e-01 2.03e+01 1.58e+03  -6.0 1.30e+03  -9.3 1.15e-01 1.49e-01h  1
 183 -2.4572081e-01 2.41e+01 2.27e+04  -6.0 3.31e+03  -9.8 9.79e-03 1.69e-01h  1
 184 -2.4619573e-01 2.25e+01 2.17e+04  -6.0 1.25e+03  -9.4 1.11e-01 7.82e-02h  1
 185 -2.4653318e-01 2.16e+01 1.94e+04  -6.0 2.05e+03  -9.8 8.58e-02 4.73e-02h  1
 186 -2.4680191e-01 1.99e+01 1.79e+04  -6.0 1.20e+03  -9.4 7.60e-02 7.74e-02h  1
 187 -2.4702497e-01 1.75e+01 1.62e+04  -6.0 5.01e+02  -9.0 7.07e-02 1.24e-01h  1
 188 -2.4722284e-01 1.58e+01 1.43e+04  -6.0 8.44e+02  -9.5 1.50e-01 9.42e-02h  1
 189 -2.4768067e-01 1.09e+01 6.97e+04  -6.0 5.17e+02  -9.0 2.94e-02 3.10e-01h  1
iter    objective    inf_pr   inf_du lg(mu)  ||d||  lg(rg) alpha_du alpha_pr  ls
 190 -2.4864250e-01 5.15e+00 5.07e+04  -6.0 9.08e+02  -9.5 5.50e-02 6.01e-01h  1
 191 -2.4905052e-01 1.25e+00 3.82e+04  -6.0 2.92e+02  -9.1 2.82e-02 1.00e+00h  1
 192 -2.4932159e-01 1.15e+00 3.43e+04  -6.0 5.41e+02  -7.8 2.90e-02 8.50e-02h  1
 193 -2.5002142e-01 5.61e+00 4.25e+03  -6.0 1.11e+02  -8.2 1.59e-01 9.88e-01h  1
 194 -2.5027128e-01 5.53e+00 2.55e+03  -6.0 3.60e+02  -8.7 4.26e-01 1.20e-01h  1
 195 -2.5061633e-01 6.69e+00 2.20e+03  -6.0 1.02e+03  -9.2 1.23e-01 7.99e-02h  1
 196 -2.5063233e-01 6.67e+00 1.63e+03  -6.0 2.32e+04    -  8.63e-02 2.60e-03h  1
 197 -2.5113848e-01 5.00e+00 6.77e+02  -6.0 1.06e+03  -9.7 8.32e-01 2.56e-01f  1
 198 -2.5139851e-01 2.17e+01 5.47e+02  -6.0 1.50e+04    -  1.58e-01 8.24e-02h  1
 199 -2.5221665e-01 2.17e+01 2.80e+02  -6.0 1.51e+03 -10.1 9.69e-03 7.21e-01h  1
iter    objective    inf_pr   inf_du lg(mu)  ||d||  lg(rg) alpha_du alpha_pr  ls
 200 -2.5234404e-01 7.67e+00 1.05e+01  -6.0 9.24e+02  -9.7 1.00e+00 6.51e-01h  1
 201 -2.5245001e-01 7.00e-01 5.00e-01  -6.0 4.26e+02  -9.3 1.00e+00 1.00e+00h  1
 202 -2.5255661e-01 3.16e-01 2.44e-01  -6.0 1.99e+02  -8.9 1.00e+00 1.00e+00h  1
 203 -2.5258404e-01 2.09e-01 4.63e-01  -6.0 1.82e+02  -8.4 4.50e-01 3.75e-01h  1
 204 -2.5272766e-01 9.26e-01 6.85e-01  -6.0 2.99e+02  -8.9 1.00e+00 1.00e+00f  1
 205 -2.5280459e-01 1.14e+00 4.30e+01  -6.0 2.62e+03  -9.4 1.53e-01 4.72e-02h  1
 206 -2.5283061e-01 7.99e-02 6.92e+03  -6.0 3.57e+01  -7.2 4.14e-03 1.00e+00h  1
 207 -2.5268101e-01 3.04e+00 3.01e+03  -6.0 3.85e+01  -6.7 1.17e-01 5.64e-01h  1
 208 -2.5275262e-01 2.46e+00 2.21e+03  -6.0 4.17e+01  -7.2 2.52e-01 2.64e-01h  1
 209 -2.5325310e-01 5.39e+01 4.42e+02  -6.0 4.82e+01  -7.7 3.08e-01 7.96e-01f  1
iter    objective    inf_pr   inf_du lg(mu)  ||d||  lg(rg) alpha_du alpha_pr  ls
 210 -2.5340156e-01 2.89e+01 3.19e+01  -6.0 6.80e+01  -8.2 1.00e+00 9.37e-01h  1
 211 -2.5355438e-01 1.92e+01 1.78e+01  -6.0 1.66e+02  -8.6 6.39e-01 5.06e-01h  1
 212 -2.5372931e-01 1.34e+01 1.41e+01  -6.0 3.81e+02  -9.1 9.79e-01 3.22e-01h  1
 213 -2.5388910e-01 3.10e+00 2.64e+00  -6.0 1.48e+02  -8.7 1.00e+00 8.13e-01h  1
 214 -2.5393510e-01 2.92e+00 2.92e+00  -6.0 1.82e+03  -9.2 7.79e-02 5.94e-02h  1
 215 -2.5449393e-01 3.56e+00 7.97e-01  -6.0 7.15e+02  -9.6 1.00e+00 9.49e-01h  1
 216 -2.5473381e-01 3.36e+00 2.81e+00  -6.0 2.28e+03 -10.1 4.60e-01 5.06e-01h  1
 217 -2.5500672e-01 3.88e+00 1.27e+01  -6.0 1.14e+03  -9.7 2.86e-01 1.00e+00h  1
 218 -2.5499703e-01 1.06e+00 5.36e+01  -6.0 1.77e+01  -6.6 2.06e-01 7.85e-01h  1
 219 -2.5499818e-01 7.85e-01 4.11e+01  -6.0 1.88e+01  -6.1 1.90e-01 2.58e-01h  1
iter    objective    inf_pr   inf_du lg(mu)  ||d||  lg(rg) alpha_du alpha_pr  ls
 220 -2.5506909e-01 3.51e+01 4.05e+01  -6.0 7.09e+04    -  6.22e-03 2.35e-02h  1
 221 -2.5515712e-01 1.82e+01 2.46e+02  -6.0 6.38e+00  -5.7 5.42e-01 4.81e-01h  1
 222 -2.5514791e-01 3.16e+00 1.76e+02  -6.0 2.97e+00  -6.2 9.23e-01 8.27e-01h  1
 223 -2.5517804e-01 1.66e-03 3.46e-01  -6.0 2.42e+00  -6.7 1.00e+00 1.00e+00h  1
 224 -2.5518881e-01 1.32e-03 6.15e-02  -6.0 6.17e+00  -7.1 1.00e+00 1.00e+00h  1
 225 -2.5518861e-01 7.47e-03 1.64e-02  -6.0 1.40e+01  -7.6 1.00e+00 1.00e+00h  1
 226 -2.5519586e-01 1.68e-02 1.64e-02  -6.0 2.97e+01  -8.1 1.00e+00 1.00e+00h  1
 227 -2.5526440e-01 8.56e-02 1.69e-01  -6.0 9.65e+01  -8.6 1.00e+00 1.00e+00h  1
 228 -2.5529957e-01 3.34e-02 4.54e-02  -6.0 4.76e+01  -8.1 1.00e+00 1.00e+00h  1
 229 -2.5530722e-01 3.13e-02 1.04e+00  -6.0 4.71e+01  -7.7 5.36e-01 4.00e-01h  1
iter    objective    inf_pr   inf_du lg(mu)  ||d||  lg(rg) alpha_du alpha_pr  ls
 230 -2.5533351e-01 7.67e-02 3.13e-01  -6.0 5.30e+01  -8.2 1.00e+00 1.00e+00f  1
 231 -2.5552136e-01 1.54e+00 1.76e+00  -6.0 2.06e+02  -8.7 9.56e-01 9.68e-01h  1
 232 -2.5596318e-01 1.48e+01 2.02e+01  -6.0 1.86e+03  -9.1 9.88e-02 2.34e-01h  1
 233 -2.5601179e-01 9.70e+00 1.35e+01  -6.0 9.42e+02  -9.6 4.21e-01 4.29e-01h  1
 234 -2.5607342e-01 4.96e+00 6.81e+00  -6.0 7.10e+02 -10.1 5.94e-01 4.93e-01h  1
 235 -2.5624839e-01 5.33e+01 1.20e+01  -6.0 1.02e+04    -  2.73e-01 2.01e-01h  1
 236 -2.5625230e-01 5.09e+01 1.24e+03  -6.0 6.28e+03    -  4.92e-01 4.79e-02h  1
 237 -2.5629002e-01 4.29e+01 1.78e+02  -6.0 6.93e+03    -  4.22e-01 1.63e-01h  1
 238 -2.5636644e-01 3.99e+01 1.65e+02  -6.0 4.98e+04    -  7.05e-02 7.15e-02h  1
 239 -2.5665819e-01 2.91e+01 1.69e+02  -6.0 2.96e+03    -  1.16e-03 2.71e-01h  1
iter    objective    inf_pr   inf_du lg(mu)  ||d||  lg(rg) alpha_du alpha_pr  ls
 240 -2.5688092e-01 1.90e+01 1.63e+02  -6.0 4.56e+03    -  1.08e-01 3.48e-01h  1
 241 -2.5748058e-01 1.57e+01 9.42e+01  -6.0 2.33e+03    -  3.58e-01 5.55e-01h  1
 242 -2.5762811e-01 1.02e+01 4.39e+01  -6.0 2.82e+02    -  3.87e-01 6.27e-01h  1
 243 -2.5782675e-01 8.28e+00 3.71e+01  -6.0 1.71e+03    -  1.56e-01 1.52e-01h  1
 244 -2.5817769e-01 5.17e+00 4.30e+01  -6.0 7.82e+02    -  2.35e-01 6.73e-01h  1
 245 -2.5834005e-01 1.27e+01 9.11e+01  -6.0 1.79e+03    -  1.20e-01 4.20e-01h  1
 246 -2.5848512e-01 5.30e+00 3.07e+01  -6.0 4.40e+02 -10.6 7.42e-01 5.84e-01h  1
 247 -2.5861664e-01 5.01e+00 1.54e+01  -6.0 7.28e+02    -  4.91e-01 4.94e-01h  1
 248 -2.5878552e-01 2.20e+00 8.42e+01  -6.0 3.94e+02 -10.2 9.52e-01 8.68e-01h  1
 249 -2.5887563e-01 1.46e+00 8.47e+01  -6.0 6.01e+02 -10.6 4.09e-01 4.55e-01h  1
iter    objective    inf_pr   inf_du lg(mu)  ||d||  lg(rg) alpha_du alpha_pr  ls
 250 -2.5888476e-01 3.36e+00 3.79e+02  -6.0 8.98e+03 -11.1 1.23e-01 4.16e-02h  2
 251 -2.5909712e-01 2.05e-01 1.37e+03  -6.0 6.15e+01  -8.9 7.21e-01 1.00e+00h  1
 252 -2.5915647e-01 1.64e-01 4.05e+03  -6.0 1.55e+02  -9.4 5.21e-01 1.98e-01h  1
 253 -2.5928224e-01 2.44e+00 1.10e+06  -6.0 4.20e+02  -9.8 1.21e-02 8.88e-01f  1
 254 -2.5921990e-01 1.46e+00 1.37e+03  -6.0 3.01e+02 -10.3 7.32e-01 1.00e+00h  1
 255 -2.5922931e-01 4.28e+00 1.18e+03  -6.0 3.29e+03 -10.8 5.43e-01 1.28e-01h  1
 256 -2.5922148e-01 7.59e+00 1.11e+03  -6.0 1.04e+04 -11.3 2.58e-01 6.47e-02h  2
 257 -2.5919495e-01 3.75e+01 1.00e+02  -6.0 2.21e+03 -10.8 1.00e+00 9.08e-01H  1
 258 -2.5919432e-01 9.73e-01 4.97e+02  -6.0 3.21e+02    -  3.52e-01 1.00e+00h  1
 259 -2.5921459e-01 1.43e+00 1.89e+02  -6.0 7.72e+02 -10.4 1.00e+00 6.27e-01H  1
iter    objective    inf_pr   inf_du lg(mu)  ||d||  lg(rg) alpha_du alpha_pr  ls
 260 -2.5921041e-01 5.95e+00 5.54e+01  -6.0 8.86e+03    -  3.82e-01 7.07e-02h  1
 261 -2.5920764e-01 1.60e-01 8.41e+00  -6.0 1.12e+02    -  9.82e-01 1.00e+00h  1
 262 -2.5920448e-01 5.09e-02 7.74e-02  -6.0 6.65e+01    -  1.00e+00 1.00e+00h  1
 263 -2.5920496e-01 1.06e-04 3.22e-04  -6.0 3.08e+00    -  1.00e+00 1.00e+00h  1
 264 -2.5920500e-01 1.35e-08 2.24e-06  -6.0 1.70e-02    -  1.00e+00 1.00e+00h  1
 265 -2.5971151e-01 1.32e+00 4.60e+01  -7.5 3.06e+03    -  3.72e-01 2.10e-01f  1
 266 -2.5975776e-01 1.27e+00 1.22e+02  -7.5 1.49e+02  -9.1 4.53e-01 3.92e-02h  1
 267 -2.6038323e-01 8.30e+00 5.24e+01  -7.5 3.64e+03    -  3.19e-03 3.90e-01h  1
 268 -2.6044522e-01 7.74e+00 1.37e+02  -7.5 2.25e+03    -  4.30e-01 7.28e-02h  1
 269 -2.6058890e-01 5.95e+00 1.80e+02  -7.5 1.90e+02  -9.6 7.12e-01 2.31e-01h  1
iter    objective    inf_pr   inf_du lg(mu)  ||d||  lg(rg) alpha_du alpha_pr  ls
 270 -2.6075436e-01 5.07e+00 1.23e+02  -7.5 2.24e+03    -  6.87e-02 2.59e-01h  1
 271 -2.6082345e-01 4.84e+00 1.22e+02  -7.5 3.06e+02 -10.0 5.11e-01 1.56e-01h  1
 272 -2.6099626e-01 2.28e+01 7.18e+01  -7.5 1.95e+03 -10.5 7.71e-02 5.62e-01h  1
 273 -2.6101958e-01 1.86e+01 5.01e+01  -7.5 1.56e+03    -  2.48e-01 1.82e-01h  1
 274 -2.6106761e-01 8.34e+00 2.46e+01  -7.5 6.93e+02 -11.0 1.00e+00 5.52e-01h  1
 275 -2.6111818e-01 4.22e-01 2.51e+00  -7.5 6.89e+02 -11.5 3.41e-03 1.00e+00h  1
 276 -2.6111961e-01 2.55e+01 2.28e+00  -7.5 1.59e+04    -  2.47e-02 9.31e-02h  2
 277 -2.6113326e-01 2.41e+01 1.79e+00  -7.5 1.42e+03    -  3.13e-01 1.00e+00h  1
 278 -2.6113435e-01 2.08e+01 5.88e-01  -7.5 6.03e+02 -11.9 7.72e-01 1.40e-01h  1
 279 -2.6113443e-01 3.00e+01 5.56e-01  -7.5 1.20e+04    -  4.30e-02 8.00e-02h  2
iter    objective    inf_pr   inf_du lg(mu)  ||d||  lg(rg) alpha_du alpha_pr  ls
 280 -2.6113459e-01 1.46e+00 3.04e-01  -7.5 3.01e+02    -  2.07e-01 1.00e+00h  1
 281 -2.6113439e-01 6.98e-01 5.52e-03  -7.5 7.77e+01    -  1.00e+00 1.00e+00h  1
 282 -2.6113438e-01 5.78e-01 2.20e-02  -7.5 9.99e+01    -  5.13e-01 1.00e+00h  1
 283 -2.6113450e-01 2.93e+00 5.48e-03  -7.5 4.93e+02 -11.5 1.00e+00 1.00e+00h  1
 284 -2.6113492e-01 1.71e+01 3.43e-02  -7.5 1.18e+03 -12.0 1.00e+00 1.00e+00h  1
 285 -2.6113561e-01 3.47e+01 6.20e-01  -7.5 2.24e+04 -12.5 1.03e-01 5.37e-02h  2
 286 -2.6113764e-01 6.73e+01 1.27e-01  -7.5 2.22e+03 -12.0 1.00e+00 1.00e+00h  1
 287 -2.6113776e-01 7.75e-01 3.95e-01  -7.5 2.98e+02    -  2.94e-01 1.00e+00h  1
 288 -2.6113798e-01 2.12e+00 8.05e-04  -7.5 1.92e+02    -  1.00e+00 1.00e+00h  1
 289 -2.6113824e-01 1.15e+00 1.01e-01  -7.5 2.29e+02    -  2.33e-01 1.00e+00h  1
iter    objective    inf_pr   inf_du lg(mu)  ||d||  lg(rg) alpha_du alpha_pr  ls
 290 -2.6114032e-01 4.47e+01 9.20e-01  -7.5 1.75e+03 -11.6 1.99e-01 1.00e+00h  1
 291 -2.6114216e-01 4.99e+01 1.03e+00  -7.5 4.01e+03    -  2.62e-01 3.65e-01H  1
 292 -2.6114089e-01 2.38e+01 2.20e-01  -7.5 1.23e+03    -  1.00e+00 1.00e+00h  1
 293 -2.6114206e-01 2.73e+01 9.94e-01  -7.5 1.96e+03    -  9.81e-01 4.95e-01h  2
 294 -2.6114319e-01 1.95e+01 7.92e-02  -7.5 1.06e+03    -  1.00e+00 1.00e+00h  1
 295 -2.6114294e-01 5.18e-01 1.19e+00  -7.5 1.91e+02    -  7.12e-01 1.00e+00h  1
 296 -2.6114279e-01 2.79e-01 2.14e-03  -7.5 1.27e+02    -  1.00e+00 1.00e+00h  1
 297 -2.6114277e-01 8.00e-03 3.63e-05  -7.5 2.18e+01    -  1.00e+00 1.00e+00h  1
 298 -2.6114277e-01 7.43e-09 3.33e-10  -7.5 2.87e-02    -  1.00e+00 1.00e+00h  1
 299 -2.6114491e-01 1.53e+00 7.47e+00  -9.0 1.28e+03    -  5.79e-01 2.32e-01h  1
iter    objective    inf_pr   inf_du lg(mu)  ||d||  lg(rg) alpha_du alpha_pr  ls
 300 -2.6114856e-01 5.20e+01 3.50e-01  -9.0 2.38e+03    -  4.79e-01 7.26e-01h  1
 301 -2.6114846e-01 1.93e+01 2.75e+00  -9.0 3.25e+02    -  6.01e-02 6.30e-01h  1
 302 -2.6114864e-01 6.99e-01 3.90e-01  -9.0 1.72e+02 -11.2 9.11e-01 1.00e+00h  1
 303 -2.6114893e-01 2.01e+00 3.13e-03  -9.0 3.23e+02 -11.7 1.00e+00 1.00e+00h  1
 304 -2.6114963e-01 1.36e+01 7.00e-03  -9.0 8.32e+02 -12.1 1.00e+00 1.00e+00h  1
 305 -2.6115069e-01 4.76e+01 2.28e-02  -9.0 2.27e+03 -12.6 7.11e-01 6.35e-01h  1
 306 -2.6115071e-01 4.54e+01 3.51e-01  -9.0 8.04e+03 -13.1 6.96e-02 4.62e-02h  4
 307 -2.6115076e-01 4.42e+01 1.17e+01  -9.0 3.72e+03 -12.7 4.10e-01 3.39e-02h  1
 308 -2.6115097e-01 3.57e+01 8.61e+00  -9.0 1.42e+03 -12.3 4.24e-01 2.73e-01h  1
 309 -2.6115180e-01 2.91e+01 1.17e+03  -9.0 1.37e+03 -12.7 5.78e-03 4.96e-01h  1
iter    objective    inf_pr   inf_du lg(mu)  ||d||  lg(rg) alpha_du alpha_pr  ls
 310 -2.6115208e-01 5.27e+00 9.12e+02  -9.0 4.96e+02 -12.3 8.83e-03 1.00e+00h  1
 311 -2.6115187e-01 2.54e-01 1.06e+00  -9.0 1.42e+02 -11.9 4.81e-01 1.00e+00h  1
 312 -2.6115247e-01 4.79e+00 1.09e+00  -9.0 3.25e+03 -12.4 2.86e-01 1.39e-01h  1
 313 -2.6115326e-01 9.92e+01 1.21e+00  -9.0 4.09e+03 -12.8 9.32e-02 7.09e-01h  1
 314 -2.6115292e-01 1.19e+02 1.38e+01  -9.0 4.47e+03 -12.4 1.82e-01 5.35e-01h  1
 315 -2.6115313e-01 1.13e+02 1.24e+01  -9.0 1.44e+04 -12.9 6.13e-04 4.68e-02h  3
 316 -2.6115360e-01 1.69e+00 6.71e+00  -9.0 2.61e+02 -11.6 3.77e-01 1.00e+00h  1
 317 -2.6115384e-01 2.23e+00 6.10e-02  -9.0 4.16e+02 -12.0 9.79e-01 1.00e+00h  1
 318 -2.6115509e-01 6.16e+01 1.28e-02  -9.0 2.18e+03 -12.5 1.00e+00 1.00e+00h  1
 319 -2.6115630e-01 1.57e+01 1.33e-02  -9.0 9.94e+02 -12.1 5.78e-01 1.00e+00h  1
iter    objective    inf_pr   inf_du lg(mu)  ||d||  lg(rg) alpha_du alpha_pr  ls
 320 -2.6115741e-01 2.02e+01 2.33e-02  -9.0 1.20e+03 -12.6 3.75e-02 1.00e+00h  1
 321 -2.6115950e-01 6.76e+01 6.37e-02  -9.0 3.23e+03 -12.1 8.18e-02 6.51e-01h  1
 322 -2.6115879e-01 6.32e+01 4.75e-01  -9.0 3.55e+03 -12.6 3.01e-01 2.46e-01h  2
 323 -2.6115928e-01 2.58e+00 1.90e+00  -9.0 3.40e+02 -11.3 5.76e-01 1.00e+00h  1
 324 -2.6116009e-01 4.82e+00 3.31e-03  -9.0 5.44e+02 -11.8 1.00e+00 1.00e+00h  1
 325 -2.6116265e-01 5.72e+01 3.19e-02  -9.0 1.86e+03 -12.2 7.74e-01 1.00e+00h  1
 326 -2.6116285e-01 5.55e+01 3.15e-02  -9.0 4.25e+03 -12.7 1.16e-01 3.41e-02h  1
 327 -2.6116482e-01 3.48e+01 1.24e-01  -9.0 1.33e+03 -12.3 9.38e-01 1.00e+00h  1
 328 -2.6116621e-01 4.12e+01 9.68e-01  -9.0 2.54e+03 -12.8 5.23e-02 3.96e-01h  1
 329 -2.6116781e-01 7.00e+01 2.32e+00  -9.0 8.50e+03 -12.3 6.12e-02 2.46e-01h  1
iter    objective    inf_pr   inf_du lg(mu)  ||d||  lg(rg) alpha_du alpha_pr  ls
 330 -2.6116795e-01 6.15e+01 2.48e+00  -9.0 2.60e+03 -12.8 4.54e-01 1.58e-01h  1
 331 -2.6116800e-01 6.14e+01 2.33e+00  -9.0 4.90e+04    -  3.64e-02 1.88e-03h  5
 332 -2.6116823e-01 6.02e+01 3.92e+00  -9.0 1.91e+04    -  1.89e-01 1.92e-02h  3
 333 -2.6116883e-01 5.49e+01 6.34e+00  -9.0 6.16e+03    -  5.72e-01 1.04e-01h  2
 334 -2.6116931e-01 4.96e+01 4.94e+00  -9.0 3.17e+03    -  3.10e-01 1.12e-01h  1
 335 -2.6117070e-01 4.11e+01 8.05e+00  -9.0 3.52e+03    -  3.60e-02 3.18e-01h  1
 336 -2.6117103e-01 3.80e+01 7.22e+00  -9.0 2.21e+03    -  2.56e-02 9.34e-02h  1
 337 -2.6117127e-01 3.59e+01 2.38e+01  -9.0 2.22e+03    -  1.55e-02 6.38e-02h  1
 338 -2.6117245e-01 3.36e+01 1.55e+01  -9.0 2.22e+03    -  2.78e-01 3.40e-01h  1
 339 -2.6117306e-01 2.95e+01 7.87e+01  -9.0 1.86e+03    -  1.69e-02 1.90e-01h  1
iter    objective    inf_pr   inf_du lg(mu)  ||d||  lg(rg) alpha_du alpha_pr  ls
 340 -2.6117356e-01 2.60e+01 2.06e+02  -9.0 1.83e+03    -  5.38e-03 2.14e-01h  1
 341 -2.6117426e-01 2.37e+01 1.39e+02  -9.0 1.78e+03    -  7.01e-02 3.24e-01h  1
 342 -2.6117500e-01 2.22e+01 8.87e+01  -9.0 1.76e+03    -  3.10e-02 3.62e-01h  1
 343 -2.6117598e-01 2.89e+01 3.52e+01  -9.0 1.68e+03    -  3.47e-02 6.03e-01h  1
 344 -2.6117631e-01 1.90e+01 3.99e+02  -9.0 1.37e+03    -  5.01e-03 4.03e-01h  1
 345 -2.6117647e-01 1.96e+01 3.67e+02  -9.0 4.03e+03    -  1.83e-01 7.84e-02h  2
 346 -2.6117681e-01 2.23e+01 2.82e+02  -9.0 2.52e+03    -  4.81e-01 2.31e-01h  1
 347 -2.6117740e-01 3.01e+01 8.88e+01  -9.0 1.25e+03    -  5.37e-02 8.90e-01h  1
 348 -2.6117743e-01 3.01e+01 9.47e+01  -9.0 1.13e+04    -  1.29e-01 9.82e-03h  3
 349 -2.6117757e-01 2.89e+01 7.63e+01  -9.0 2.43e+03    -  1.00e+00 1.64e-01h  1
iter    objective    inf_pr   inf_du lg(mu)  ||d||  lg(rg) alpha_du alpha_pr  ls
 350 -2.6117761e-01 8.13e-02 7.71e+01  -9.0 8.70e+01    -  9.89e-02 1.00e+00h  1
 351 -2.6117761e-01 7.83e-02 2.33e-04  -9.0 5.71e+01    -  1.00e+00 1.00e+00h  1
 352 -2.6117761e-01 3.45e-04 2.13e-07  -9.0 3.86e+00    -  1.00e+00 1.00e+00h  1
 353 -2.6117761e-01 2.70e-05 3.40e-09  -9.0 1.06e+00    -  1.00e+00 1.00e+00h  1
 354 -2.6117761e-01 2.83e-10 1.53e-14  -9.0 5.41e-04    -  1.00e+00 1.00e+00h  1

Number of Iterations....: 354

                                   (scaled)                 (unscaled)
Objective...............:  -2.6117761131537942e-01   -2.6117761131537942e-01
Dual infeasibility......:   1.5251688800788088e-14    1.5251688800788088e-14
Constraint violation....:   2.8289069643663151e-10    2.8289069643663151e-10
Complementarity.........:   9.0909091763926435e-10    9.0909091763926435e-10
Overall NLP error.......:   9.0909091763926435e-10    9.0909091763926435e-10


Number of objective function evaluations             = 630
Number of objective gradient evaluations             = 351
Number of equality constraint evaluations            = 630
Number of inequality constraint evaluations          = 631
Number of equality constraint Jacobian evaluations   = 357
Number of inequality constraint Jacobian evaluations = 357
Number of Lagrangian Hessian evaluations             = 354
Total CPU secs in IPOPT (w/o function evaluations)   =    640.557
Total CPU secs in NLP function evaluations           =     13.170

EXIT: Optimal Solution Found.
